c ren 1 -> 1
c ren 2 -> 2
c ren 3 -> 3
c ren 5 -> 4
c ren 7 -> 5
c ren 8 -> 6
c ren 10 -> 7
c ren 13 -> 8
c ren 16 -> 9
c ren 17 -> 10
c ren 19 -> 11
c ren 22 -> 12
c ren 25 -> 13
c ren 26 -> 14
c ren 28 -> 15
c ren 30 -> 16
c ren 33 -> 17
c ren 37 -> 18
c ren 43 -> 19
c ren 44 -> 20
c ren 48 -> 21
c ren 49 -> 22
c ren 52 -> 23
c ren 55 -> 24
c ren 56 -> 25
c ren 86 -> 26
c ren 99 -> 27
c ren 106 -> 28
c ren 116 -> 29
c ren 118 -> 30
c ren 130 -> 31
c ren 141 -> 32
c ren 151 -> 33
c ren 155 -> 34
c ren 163 -> 35
c ren 174 -> 36
p cnf 36 150
a 1 2 3 5 6 7 9 10 11 13 14 15 17 18 19 20 22 24 28 30 32 34 35 36 0
d 26 1 5 0
d 27 9 13 0
d 29 17 18 0
d 31 19 22 0
d 33 24 34 0
e 4 8 12 16 21 23 25 0
2 3 -6 21 -23 -25 0
-1 -2 -3 4 0
3 -4 -8 -11 -12 -15 -16 17 18 19 -21 0
1 -2 -3 -4 0
2 -4 -8 -11 -12 -14 -16 17 18 19 -21 0
-2 -3 -4 -8 -10 -12 14 15 -16 17 -18 -19 -20 -21 0
-5 -6 -8 0
-5 6 7 8 0
-7 22 23 0
5 6 7 -8 0
-6 22 23 0
8 21 0
-2 -3 11 15 21 -23 -25 -28 0
-7 14 15 21 -23 -25 28 30 -31 0
-9 -10 -12 0
-9 10 11 12 0
-11 20 21 -23 -25 -26 28 -29 34 36 0
9 10 11 -12 0
-10 20 21 -23 -25 -26 28 -29 34 36 0
-10 21 -23 -25 -26 -27 0
2 3 11 15 21 -23 -25 29 -30 0
12 21 0
-4 -8 10 11 -12 14 15 -16 -17 -18 19 20 -21 0
-11 21 -23 -25 -26 28 -29 -30 0
-13 -14 -16 0
-13 14 -15 16 0
-11 20 21 -23 -25 -26 28 -29 -32 0
13 14 -15 -16 0
13 15 16 0
-13 15 -16 0
13 -14 16 0
16 21 0
-2 -3 -6 21 -23 -25 0
1 3 4 0
-2 -3 -4 -8 10 11 -12 14 15 -16 -17 -18 -19 -20 -21 0
-1 3 -4 0
-4 -8 10 11 -12 -14 -16 -17 18 19 20 -21 0
-4 -8 10 11 -12 -15 -16 -17 18 19 20 -21 0
-9 -11 -12 0
-4 -8 -10 -12 -14 -16 17 18 19 20 -21 0
-5 -7 -8 0
-11 20 21 -23 -25 -26 28 -29 34 -35 0
9 -10 12 0
3 24 25 0
-2 -3 -4 -8 -11 -12 -15 -16 17 18 -19 -20 -21 0
-2 -3 -4 -8 -11 -12 14 15 -16 17 -18 -19 -20 -21 0
2 3 -10 21 -23 -25 0
2 -4 -8 -10 -12 14 15 -16 17 -18 19 -21 0
-11 21 -23 -25 -26 -27 0
-2 -3 -4 -8 -11 -12 -14 -16 17 18 -19 -20 -21 0
2 3 11 15 20 21 -23 -25 30 32 34 35 -36 0
-4 -8 -10 -12 -15 -16 17 18 19 20 -21 0
9 -11 12 0
-4 -8 -10 -12 14 15 -16 17 -18 19 20 -21 0
5 -7 8 0
14 15 20 21 -23 -25 28 30 -31 0
-1 2 -4 0
-2 6 7 10 11 14 15 20 21 -23 -25 28 30 32 -33 0
-10 14 15 21 -23 -25 28 30 -31 0
2 3 11 15 -20 21 -23 -25 30 31 0
2 -4 -8 10 11 -12 14 15 -16 -17 -18 19 -21 0
2 -4 -8 10 11 -12 -14 -16 -17 18 19 -21 0
-2 -3 -7 21 -23 -25 0
-4 -8 -11 -12 14 15 -16 17 -18 19 20 -21 0
2 -4 -8 -11 -12 -15 -16 17 18 19 -21 0
-2 -3 -10 21 -23 -25 0
2 3 11 15 21 -23 -25 -28 0
-4 -8 -11 -12 -14 -16 17 18 19 20 -21 0
-2 -3 11 -14 21 -23 -25 0
2 3 11 -14 21 -23 -25 0
4 21 0
3 -4 -8 10 11 -12 14 15 -16 -17 -18 19 -21 0
-2 -3 -4 -8 -10 -12 -15 -16 17 18 -19 -20 -21 0
3 -4 -8 10 11 -12 -15 -16 -17 18 19 -21 0
3 -4 -8 -10 -12 14 15 -16 17 -18 19 -21 0
3 -4 -8 10 11 -12 -14 -16 -17 18 19 -21 0
3 -4 -8 -10 -12 -14 -16 17 18 19 -21 0
2 -4 -8 -10 -12 -14 -16 17 18 19 -21 0
-2 -3 -4 -8 10 11 -12 -14 -16 -17 18 -19 -20 -21 0
-4 -8 -11 -12 -15 -16 17 18 19 20 -21 0
-2 -3 -4 -8 -10 -12 -14 -16 17 18 -19 -20 -21 0
-2 -3 -4 -8 10 11 -12 -15 -16 -17 18 -19 -20 -21 0
-2 21 -23 -25 -26 -27 0
2 3 -11 21 -23 -25 26 0
-3 21 -23 -25 -26 28 -29 -30 0
-6 21 -23 -25 -26 -27 0
2 3 21 -23 -25 26 28 -30 0
-2 20 21 -23 -25 -26 28 -29 34 -35 0
-2 20 21 -23 -25 -26 28 -29 34 36 0
-6 10 -11 21 -23 -25 -26 0
-3 10 -11 21 -23 -25 -26 0
-3 21 -23 -25 -26 -27 0
-3 20 21 -23 -25 -26 28 -29 34 -35 0
-3 20 21 -23 -25 -26 28 -29 -32 0
-2 20 21 -23 -25 -26 28 -29 -32 0
1 2 4 0
6 7 10 11 -22 23 0
-2 -3 11 15 20 21 -23 -25 30 32 34 35 -36 0
-3 20 21 -23 -25 -26 28 -29 34 36 0
-7 10 -11 21 -23 -25 -26 0
-6 21 -23 -25 -26 28 -29 -30 0
-7 21 -23 -25 -26 28 -29 -30 0
2 3 11 15 20 21 -23 -25 29 34 36 0
-6 20 21 -23 -25 -26 28 -29 34 36 0
2 -4 -8 10 11 -12 -15 -16 -17 18 19 -21 0
-7 21 -23 -25 -26 -27 0
-2 21 -23 -25 -26 28 -29 -30 0
-6 20 21 -23 -25 -26 28 -29 34 -35 0
2 -4 -8 -11 -12 14 15 -16 17 -18 19 -21 0
-6 14 15 21 -23 -25 28 30 -31 0
-11 22 23 0
2 3 20 21 -23 -25 26 28 34 -35 0
-7 20 21 -23 -25 -26 28 -29 -32 0
2 3 11 15 20 21 -23 -25 29 34 -35 0
-14 20 21 -23 -25 -26 28 -29 34 -35 0
-14 20 21 -23 -25 -26 28 -29 -32 0
-10 20 21 -23 -25 -26 28 -29 34 -35 0
-14 20 21 -23 -25 -26 28 -29 34 36 0
-10 20 21 -23 -25 -26 28 -29 -32 0
15 21 -23 -25 -26 -27 0
3 -4 -8 -10 -12 -15 -16 17 18 19 -21 0
2 3 11 15 20 21 -23 -25 30 32 33 -34 0
-15 21 -23 -25 -26 28 -29 -30 0
3 -4 -8 -11 -12 14 15 -16 17 -18 19 -21 0
-15 20 21 -23 -25 -26 28 -29 34 -35 0
2 3 14 20 21 -23 -25 26 28 -32 0
-14 21 -23 -25 -26 28 -29 -30 0
2 3 20 21 -23 -25 26 28 34 36 0
-15 20 21 -23 -25 -26 28 -29 -32 0
-14 21 -23 -25 -26 -27 0
2 3 -7 21 -23 -25 0
-3 6 7 10 11 14 15 20 21 -23 -25 28 30 32 -33 0
-3 14 15 21 -23 -25 28 30 -31 0
3 -4 -8 -11 -12 -14 -16 17 18 19 -21 0
-2 14 15 21 -23 -25 28 30 -31 0
2 3 14 -15 21 -23 -25 26 0
2 3 11 -15 21 -23 -25 27 0
-2 10 -11 21 -23 -25 -26 0
-15 20 21 -23 -25 -26 28 -29 34 36 0
2 3 11 15 20 21 -23 -25 29 -32 0
-2 -3 -24 25 0
-11 14 15 21 -23 -25 28 30 -31 0
2 -4 -8 -10 -12 -15 -16 17 18 19 -21 0
5 -6 8 0
-10 21 -23 -25 -26 28 -29 -30 0
-7 20 21 -23 -25 -26 28 -29 34 -35 0
-6 20 21 -23 -25 -26 28 -29 -32 0
-10 22 23 0
2 24 25 0
-7 20 21 -23 -25 -26 28 -29 34 36 0
